p cnf 200 1110
-101 -74 0
-101 81 0
-101 27 0
-101 -15 0
-101 -14 0
-101 5 0
-101 29 0
-101 -68 0
-101 34 0
-101 21 0
101 74 -81 -27 15 14 -5 -29 68 -34 -21 0
-102 53 0
-102 73 0
-102 -30 0
-102 -63 0
-102 -31 0
-102 74 0
-102 28 0
-102 -37 0
-102 -67 0
-102 50 0
102 -53 -73 30 63 31 -74 -28 37 67 -50 0
-103 -85 0
-103 -55 0
-103 17 0
-103 -4 0
-103 86 0
-103 -53 0
-103 -57 0
-103 87 0
-103 54 0
-103 64 0
103 85 55 -17 4 -86 53 57 -87 -54 -64 0
-104 73 0
-104 12 0
-104 -11 0
-104 -39 0
-104 35 0
-104 -8 0
-104 -6 0
-104 -60 0
-104 -59 0
-104 45 0
104 -73 -12 11 39 -35 8 6 60 59 -45 0
-105 -77 0
-105 6 0
-105 -10 0
-105 -28 0
-105 71 0
-105 -61 0
-105 38 0
-105 -57 0
-105 -80 0
-105 99 0
105 77 -6 10 28 -71 61 -38 57 80 -99 0
-106 -3 0
-106 12 0
-106 99 0
-106 87 0
-106 37 0
-106 11 0
-106 -44 0
-106 -50 0
-106 -6 0
-106 66 0
106 3 -12 -99 -87 -37 -11 44 50 6 -66 0
-107 84 0
-107 -92 0
-107 -74 0
-107 -82 0
-107 -66 0
-107 45 0
-107 -7 0
-107 -3 0
-107 81 0
-107 50 0
107 -84 92 74 82 66 -45 7 3 -81 -50 0
-108 -68 0
-108 55 0
-108 31 0
-108 -35 0
-108 4 0
-108 -88 0
-108 82 0
-108 -39 0
-108 -2 0
-108 -74 0
108 68 -55 -31 35 -4 88 -82 39 2 74 0
-109 98 0
-109 -49 0
-109 -79 0
-109 71 0
-109 -51 0
-109 -3 0
-109 13 0
-109 -76 0
-109 89 0
-109 67 0
109 -98 49 79 -71 51 3 -13 76 -89 -67 0
-110 4 0
-110 -15 0
-110 28 0
-110 68 0
-110 -92 0
-110 37 0
-110 20 0
-110 43 0
-110 -88 0
-110 31 0
110 -4 15 -28 -68 92 -37 -20 -43 88 -31 0
101 102 103 104 105 106 107 108 109 110 0
-111 -51 0
-111 -45 0
-111 -58 0
-111 67 0
-111 49 0
-111 -40 0
-111 -59 0
-111 -55 0
-111 -18 0
-111 94 0
111 51 45 58 -67 -49 40 59 55 18 -94 0
-112 36 0
-112 19 0
-112 57 0
-112 -71 0
-112 -28 0
-112 16 0
-112 92 0
-112 -52 0
-112 -18 0
-112 32 0
112 -36 -19 -57 71 28 -16 -92 52 18 -32 0
-113 -8 0
-113 -17 0
-113 36 0
-113 -78 0
-113 47 0
-113 -67 0
-113 49 0
-113 -10 0
-113 -11 0
-113 61 0
113 8 17 -36 78 -47 67 -49 10 11 -61 0
-114 61 0
-114 -100 0
-114 26 0
-114 -72 0
-114 -73 0
-114 -53 0
-114 -18 0
-114 -93 0
-114 30 0
-114 -7 0
114 -61 100 -26 72 73 53 18 93 -30 7 0
-115 -59 0
-115 35 0
-115 84 0
-115 -76 0
-115 10 0
-115 24 0
-115 -77 0
-115 39 0
-115 -46 0
-115 -3 0
115 59 -35 -84 76 -10 -24 77 -39 46 3 0
-116 -9 0
-116 -55 0
-116 70 0
-116 4 0
-116 -16 0
-116 5 0
-116 59 0
-116 -100 0
-116 -49 0
-116 -71 0
116 9 55 -70 -4 16 -5 -59 100 49 71 0
-117 89 0
-117 -55 0
-117 83 0
-117 -81 0
-117 15 0
-117 -87 0
-117 85 0
-117 -46 0
-117 -65 0
-117 -69 0
117 -89 55 -83 81 -15 87 -85 46 65 69 0
-118 28 0
-118 13 0
-118 75 0
-118 29 0
-118 -45 0
-118 57 0
-118 65 0
-118 32 0
-118 10 0
-118 27 0
118 -28 -13 -75 -29 45 -57 -65 -32 -10 -27 0
-119 -42 0
-119 -73 0
-119 97 0
-119 -44 0
-119 15 0
-119 -86 0
-119 1 0
-119 18 0
-119 27 0
-119 -45 0
119 42 73 -97 44 -15 86 -1 -18 -27 45 0
-120 82 0
-120 -22 0
-120 -1 0
-120 -54 0
-120 11 0
-120 56 0
-120 31 0
-120 -53 0
-120 93 0
-120 -24 0
120 -82 22 1 54 -11 -56 -31 53 -93 24 0
111 112 113 114 115 116 117 118 119 120 0
-121 -53 0
-121 -58 0
-121 68 0
-121 81 0
-121 -95 0
-121 -85 0
-121 -80 0
-121 30 0
-121 74 0
-121 9 0
121 53 58 -68 -81 95 85 80 -30 -74 -9 0
-122 -24 0
-122 -47 0
-122 23 0
-122 83 0
-122 66 0
-122 51 0
-122 -9 0
-122 67 0
-122 14 0
-122 86 0
122 24 47 -23 -83 -66 -51 9 -67 -14 -86 0
-123 -41 0
-123 -5 0
-123 -66 0
-123 2 0
-123 -53 0
-123 70 0
-123 -21 0
-123 -23 0
-123 58 0
-123 30 0
123 41 5 66 -2 53 -70 21 23 -58 -30 0
-124 -93 0
-124 36 0
-124 23 0
-124 40 0
-124 -15 0
-124 54 0
-124 -64 0
-124 -11 0
-124 -27 0
-124 94 0
124 93 -36 -23 -40 15 -54 64 11 27 -94 0
-125 -74 0
-125 81 0
-125 43 0
-125 61 0
-125 79 0
-125 -8 0
-125 -67 0
-125 -57 0
-125 28 0
-125 -27 0
125 74 -81 -43 -61 -79 8 67 57 -28 27 0
-126 -67 0
-126 10 0
-126 77 0
-126 39 0
-126 -85 0
-126 -31 0
-126 5 0
-126 -32 0
-126 54 0
-126 -8 0
126 67 -10 -77 -39 85 31 -5 32 -54 8 0
-127 -25 0
-127 39 0
-127 -10 0
-127 -71 0
-127 -67 0
-127 23 0
-127 -86 0
-127 -41 0
-127 16 0
-127 89 0
127 25 -39 10 71 67 -23 86 41 -16 -89 0
-128 -63 0
-128 80 0
-128 -84 0
-128 86 0
-128 -38 0
-128 -28 0
-128 -10 0
-128 -77 0
-128 -68 0
-128 -64 0
128 63 -80 84 -86 38 28 10 77 68 64 0
-129 -98 0
-129 27 0
-129 92 0
-129 64 0
-129 -49 0
-129 -97 0
-129 -50 0
-129 45 0
-129 -40 0
-129 2 0
129 98 -27 -92 -64 49 97 50 -45 40 -2 0
-130 8 0
-130 -54 0
-130 -15 0
-130 76 0
-130 92 0
-130 -11 0
-130 34 0
-130 -29 0
-130 26 0
-130 -62 0
130 -8 54 15 -76 -92 11 -34 29 -26 62 0
121 122 123 124 125 126 127 128 129 130 0
-131 63 0
-131 45 0
-131 42 0
-131 47 0
-131 56 0
-131 -8 0
-131 -62 0
-131 35 0
-131 -59 0
-131 -89 0
131 -63 -45 -42 -47 -56 8 62 -35 59 89 0
-132 19 0
-132 -62 0
-132 50 0
-132 -31 0
-132 82 0
-132 -94 0
-132 -57 0
-132 99 0
-132 -15 0
-132 88 0
132 -19 62 -50 31 -82 94 57 -99 15 -88 0
-133 -89 0
-133 -45 0
-133 32 0
-133 -38 0
-133 -9 0
-133 26 0
-133 78 0
-133 -88 0
-133 -37 0
-133 57 0
133 89 45 -32 38 9 -26 -78 88 37 -57 0
-134 -40 0
-134 58 0
-134 57 0
-134 35 0
-134 85 0
-134 33 0
-134 -81 0
-134 73 0
-134 -31 0
-134 -27 0
134 40 -58 -57 -35 -85 -33 81 -73 31 27 0
-135 -80 0
-135 -70 0
-135 -2 0
-135 61 0
-135 10 0
-135 11 0
-135 37 0
-135 -56 0
-135 63 0
-135 -77 0
135 80 70 2 -61 -10 -11 -37 56 -63 77 0
-136 -74 0
-136 71 0
-136 95 0
-136 83 0
-136 84 0
-136 -57 0
-136 -30 0
-136 -91 0
-136 -37 0
-136 -33 0
136 74 -71 -95 -83 -84 57 30 91 37 33 0
-137 22 0
-137 59 0
-137 -74 0
-137 39 0
-137 38 0
-137 -45 0
-137 67 0
-137 97 0
-137 -91 0
-137 65 0
137 -22 -59 74 -39 -38 45 -67 -97 91 -65 0
-138 82 0
-138 -16 0
-138 3 0
-138 -31 0
-138 51 0
-138 -2 0
-138 -96 0
-138 -60 0
-138 -54 0
-138 12 0
138 -82 16 -3 31 -51 2 96 60 54 -12 0
-139 -23 0
-139 -63 0
-139 -77 0
-139 79 0
-139 15 0
-139 25 0
-139 -1 0
-139 49 0
-139 48 0
-139 68 0
139 23 63 77 -79 -15 -25 1 -49 -48 -68 0
-140 -86 0
-140 51 0
-140 -74 0
-140 -21 0
-140 45 0
-140 89 0
-140 41 0
-140 23 0
-140 -35 0
-140 -22 0
140 86 -51 74 21 -45 -89 -41 -23 35 22 0
131 132 133 134 135 136 137 138 139 140 0
-141 -68 0
-141 91 0
-141 17 0
-141 -73 0
-141 87 0
-141 -29 0
-141 75 0
-141 -56 0
-141 89 0
-141 83 0
141 68 -91 -17 73 -87 29 -75 56 -89 -83 0
-142 -14 0
-142 -46 0
-142 -60 0
-142 -12 0
-142 -30 0
-142 40 0
-142 59 0
-142 35 0
-142 -32 0
-142 50 0
142 14 46 60 12 30 -40 -59 -35 32 -50 0
-143 -27 0
-143 -93 0
-143 2 0
-143 -74 0
-143 53 0
-143 -14 0
-143 4 0
-143 -67 0
-143 -97 0
-143 15 0
143 27 93 -2 74 -53 14 -4 67 97 -15 0
-144 -10 0
-144 -35 0
-144 14 0
-144 94 0
-144 -22 0
-144 26 0
-144 52 0
-144 -43 0
-144 -100 0
-144 48 0
144 10 35 -14 -94 22 -26 -52 43 100 -48 0
-145 -3 0
-145 -2 0
-145 -26 0
-145 23 0
-145 -83 0
-145 -28 0
-145 -99 0
-145 32 0
-145 64 0
-145 73 0
145 3 2 26 -23 83 28 99 -32 -64 -73 0
-146 38 0
-146 -68 0
-146 -90 0
-146 25 0
-146 45 0
-146 -85 0
-146 -67 0
-146 -61 0
-146 -52 0
-146 64 0
146 -38 68 90 -25 -45 85 67 61 52 -64 0
-147 -45 0
-147 32 0
-147 74 0
-147 -86 0
-147 -79 0
-147 -76 0
-147 48 0
-147 61 0
-147 20 0
-147 44 0
147 45 -32 -74 86 79 76 -48 -61 -20 -44 0
-148 -18 0
-148 45 0
-148 -61 0
-148 -30 0
-148 63 0
-148 -33 0
-148 9 0
-148 8 0
-148 -65 0
-148 57 0
148 18 -45 61 30 -63 33 -9 -8 65 -57 0
-149 53 0
-149 19 0
-149 -28 0
-149 24 0
-149 47 0
-149 13 0
-149 -42 0
-149 -29 0
-149 -12 0
-149 4 0
149 -53 -19 28 -24 -47 -13 42 29 12 -4 0
-150 41 0
-150 7 0
-150 32 0
-150 -74 0
-150 -10 0
-150 -30 0
-150 -82 0
-150 2 0
-150 14 0
-150 17 0
150 -41 -7 -32 74 10 30 82 -2 -14 -17 0
141 142 143 144 145 146 147 148 149 150 0
-151 -2 0
-151 -31 0
-151 -38 0
-151 12 0
-151 66 0
-151 67 0
-151 4 0
-151 -33 0
-151 53 0
-151 89 0
151 2 31 38 -12 -66 -67 -4 33 -53 -89 0
-152 -56 0
-152 23 0
-152 67 0
-152 39 0
-152 80 0
-152 85 0
-152 -83 0
-152 8 0
-152 -15 0
-152 -44 0
152 56 -23 -67 -39 -80 -85 83 -8 15 44 0
-153 -82 0
-153 -89 0
-153 19 0
-153 86 0
-153 -39 0
-153 -54 0
-153 60 0
-153 -94 0
-153 -87 0
-153 40 0
153 82 89 -19 -86 39 54 -60 94 87 -40 0
-154 12 0
-154 92 0
-154 -72 0
-154 -89 0
-154 -75 0
-154 -55 0
-154 24 0
-154 -69 0
-154 54 0
-154 7 0
154 -12 -92 72 89 75 55 -24 69 -54 -7 0
-155 53 0
-155 -37 0
-155 -62 0
-155 -34 0
-155 31 0
-155 -92 0
-155 55 0
-155 -24 0
-155 74 0
-155 -56 0
155 -53 37 62 34 -31 92 -55 24 -74 56 0
-156 66 0
-156 -38 0
-156 11 0
-156 15 0
-156 69 0
-156 28 0
-156 92 0
-156 -100 0
-156 -84 0
-156 -12 0
156 -66 38 -11 -15 -69 -28 -92 100 84 12 0
-157 -31 0
-157 80 0
-157 72 0
-157 48 0
-157 -53 0
-157 43 0
-157 -89 0
-157 -64 0
-157 20 0
-157 94 0
157 31 -80 -72 -48 53 -43 89 64 -20 -94 0
-158 -81 0
-158 -66 0
-158 -27 0
-158 97 0
-158 -43 0
-158 39 0
-158 -46 0
-158 -88 0
-158 83 0
-158 57 0
158 81 66 27 -97 43 -39 46 88 -83 -57 0
-159 36 0
-159 -84 0
-159 -38 0
-159 25 0
-159 -95 0
-159 -12 0
-159 -4 0
-159 96 0
-159 -80 0
-159 37 0
159 -36 84 38 -25 95 12 4 -96 80 -37 0
-160 36 0
-160 15 0
-160 -33 0
-160 -100 0
-160 40 0
-160 25 0
-160 -20 0
-160 21 0
-160 -75 0
-160 -6 0
160 -36 -15 33 100 -40 -25 20 -21 75 6 0
151 152 153 154 155 156 157 158 159 160 0
-161 49 0
-161 -25 0
-161 87 0
-161 -1 0
-161 22 0
-161 41 0
-161 3 0
-161 -39 0
-161 -21 0
-161 -28 0
161 -49 25 -87 1 -22 -41 -3 39 21 28 0
-162 -21 0
-162 93 0
-162 95 0
-162 -19 0
-162 -79 0
-162 57 0
-162 -22 0
-162 82 0
-162 36 0
-162 15 0
162 21 -93 -95 19 79 -57 22 -82 -36 -15 0
-163 -7 0
-163 -2 0
-163 67 0
-163 36 0
-163 -14 0
-163 70 0
-163 47 0
-163 -80 0
-163 -34 0
-163 20 0
163 7 2 -67 -36 14 -70 -47 80 34 -20 0
-164 -30 0
-164 -77 0
-164 32 0
-164 2 0
-164 71 0
-164 -83 0
-164 62 0
-164 -87 0
-164 66 0
-164 29 0
164 30 77 -32 -2 -71 83 -62 87 -66 -29 0
-165 -37 0
-165 81 0
-165 92 0
-165 15 0
-165 44 0
-165 95 0
-165 -42 0
-165 -67 0
-165 -20 0
-165 66 0
165 37 -81 -92 -15 -44 -95 42 67 20 -66 0
-166 57 0
-166 26 0
-166 -92 0
-166 42 0
-166 -8 0
-166 94 0
-166 -73 0
-166 -63 0
-166 -38 0
-166 -86 0
166 -57 -26 92 -42 8 -94 73 63 38 86 0
-167 -85 0
-167 5 0
-167 -11 0
-167 67 0
-167 1 0
-167 -2 0
-167 -84 0
-167 -59 0
-167 -40 0
-167 -69 0
167 85 -5 11 -67 -1 2 84 59 40 69 0
-168 -10 0
-168 -74 0
-168 -95 0
-168 -51 0
-168 37 0
-168 6 0
-168 100 0
-168 7 0
-168 -98 0
-168 44 0
168 10 74 95 51 -37 -6 -100 -7 98 -44 0
-169 85 0
-169 98 0
-169 50 0
-169 46 0
-169 76 0
-169 -37 0
-169 -14 0
-169 21 0
-169 -66 0
-169 36 0
169 -85 -98 -50 -46 -76 37 14 -21 66 -36 0
-170 27 0
-170 62 0
-170 -94 0
-170 67 0
-170 -65 0
-170 34 0
-170 -69 0
-170 42 0
-170 -78 0
-170 -24 0
170 -27 -62 94 -67 65 -34 69 -42 78 24 0
161 162 163 164 165 166 167 168 169 170 0
-171 -10 0
-171 2 0
-171 -44 0
-171 3 0
-171 31 0
-171 -58 0
-171 92 0
-171 -89 0
-171 -22 0
-171 -57 0
171 10 -2 44 -3 -31 58 -92 89 22 57 0
-172 3 0
-172 10 0
-172 -99 0
-172 14 0
-172 68 0
-172 -70 0
-172 33 0
-172 78 0
-172 -73 0
-172 -24 0
172 -3 -10 99 -14 -68 70 -33 -78 73 24 0
-173 -77 0
-173 -65 0
-173 10 0
-173 -48 0
-173 42 0
-173 -56 0
-173 97 0
-173 -93 0
-173 -99 0
-173 -90 0
173 77 65 -10 48 -42 56 -97 93 99 90 0
-174 41 0
-174 -54 0
-174 62 0
-174 93 0
-174 53 0
-174 -50 0
-174 61 0
-174 91 0
-174 -96 0
-174 69 0
174 -41 54 -62 -93 -53 50 -61 -91 96 -69 0
-175 -73 0
-175 35 0
-175 -45 0
-175 -14 0
-175 -85 0
-175 55 0
-175 -42 0
-175 -61 0
-175 9 0
-175 -41 0
175 73 -35 45 14 85 -55 42 61 -9 41 0
-176 42 0
-176 96 0
-176 88 0
-176 4 0
-176 100 0
-176 67 0
-176 76 0
-176 61 0
-176 91 0
-176 6 0
176 -42 -96 -88 -4 -100 -67 -76 -61 -91 -6 0
-177 59 0
-177 -21 0
-177 -17 0
-177 91 0
-177 -97 0
-177 -19 0
-177 26 0
-177 86 0
-177 6 0
-177 -36 0
177 -59 21 17 -91 97 19 -26 -86 -6 36 0
-178 -69 0
-178 31 0
-178 51 0
-178 12 0
-178 99 0
-178 55 0
-178 65 0
-178 -87 0
-178 -24 0
-178 73 0
178 69 -31 -51 -12 -99 -55 -65 87 24 -73 0
-179 71 0
-179 -47 0
-179 39 0
-179 -97 0
-179 -23 0
-179 -62 0
-179 79 0
-179 -12 0
-179 -5 0
-179 26 0
179 -71 47 -39 97 23 62 -79 12 5 -26 0
-180 -29 0
-180 -4 0
-180 61 0
-180 -11 0
-180 50 0
-180 -98 0
-180 83 0
-180 5 0
-180 12 0
-180 52 0
180 29 4 -61 11 -50 98 -83 -5 -12 -52 0
171 172 173 174 175 176 177 178 179 180 0
-181 89 0
-181 87 0
-181 -20 0
-181 -23 0
-181 -24 0
-181 59 0
-181 -2 0
-181 4 0
-181 -62 0
-181 74 0
181 -89 -87 20 23 24 -59 2 -4 62 -74 0
-182 -46 0
-182 8 0
-182 -57 0
-182 22 0
-182 -23 0
-182 37 0
-182 75 0
-182 42 0
-182 28 0
-182 99 0
182 46 -8 57 -22 23 -37 -75 -42 -28 -99 0
-183 49 0
-183 -95 0
-183 92 0
-183 73 0
-183 -50 0
-183 -97 0
-183 -81 0
-183 27 0
-183 -86 0
-183 -13 0
183 -49 95 -92 -73 50 97 81 -27 86 13 0
-184 -70 0
-184 -59 0
-184 1 0
-184 -82 0
-184 95 0
-184 -58 0
-184 -100 0
-184 -61 0
-184 -86 0
-184 -18 0
184 70 59 -1 82 -95 58 100 61 86 18 0
-185 12 0
-185 -63 0
-185 -5 0
-185 -4 0
-185 -56 0
-185 91 0
-185 60 0
-185 72 0
-185 -37 0
-185 62 0
185 -12 63 5 4 56 -91 -60 -72 37 -62 0
-186 -50 0
-186 93 0
-186 -88 0
-186 57 0
-186 72 0
-186 32 0
-186 37 0
-186 -35 0
-186 67 0
-186 25 0
186 50 -93 88 -57 -72 -32 -37 35 -67 -25 0
-187 -56 0
-187 -18 0
-187 36 0
-187 12 0
-187 -24 0
-187 8 0
-187 63 0
-187 -99 0
-187 -54 0
-187 67 0
187 56 18 -36 -12 24 -8 -63 99 54 -67 0
-188 -82 0
-188 2 0
-188 97 0
-188 63 0
-188 37 0
-188 89 0
-188 -41 0
-188 -64 0
-188 -58 0
-188 13 0
188 82 -2 -97 -63 -37 -89 41 64 58 -13 0
-189 73 0
-189 82 0
-189 -24 0
-189 20 0
-189 -62 0
-189 55 0
-189 -93 0
-189 84 0
-189 -63 0
-189 -29 0
189 -73 -82 24 -20 62 -55 93 -84 63 29 0
-190 93 0
-190 41 0
-190 -25 0
-190 86 0
-190 22 0
-190 89 0
-190 2 0
-190 66 0
-190 -24 0
-190 33 0
190 -93 -41 25 -86 -22 -89 -2 -66 24 -33 0
181 182 183 184 185 186 187 188 189 190 0
-191 -32 0
-191 14 0
-191 98 0
-191 46 0
-191 -11 0
-191 -3 0
-191 78 0
-191 -42 0
-191 21 0
-191 15 0
191 32 -14 -98 -46 11 3 -78 42 -21 -15 0
-192 -51 0
-192 4 0
-192 -63 0
-192 -27 0
-192 -26 0
-192 -84 0
-192 -33 0
-192 -40 0
-192 -73 0
-192 -89 0
192 51 -4 63 27 26 84 33 40 73 89 0
-193 14 0
-193 -61 0
-193 -74 0
-193 13 0
-193 75 0
-193 68 0
-193 57 0
-193 30 0
-193 -3 0
-193 -80 0
193 -14 61 74 -13 -75 -68 -57 -30 3 80 0
-194 -68 0
-194 -17 0
-194 57 0
-194 -46 0
-194 95 0
-194 10 0
-194 19 0
-194 26 0
-194 71 0
-194 -65 0
194 68 17 -57 46 -95 -10 -19 -26 -71 65 0
-195 87 0
-195 -40 0
-195 -100 0
-195 17 0
-195 90 0
-195 69 0
-195 -28 0
-195 -76 0
-195 -11 0
-195 -41 0
195 -87 40 100 -17 -90 -69 28 76 11 41 0
-196 31 0
-196 -43 0
-196 -86 0
-196 84 0
-196 91 0
-196 57 0
-196 -71 0
-196 -3 0
-196 -8 0
-196 41 0
196 -31 43 86 -84 -91 -57 71 3 8 -41 0
-197 94 0
-197 86 0
-197 -99 0
-197 34 0
-197 1 0
-197 -65 0
-197 35 0
-197 -80 0
-197 71 0
-197 17 0
197 -94 -86 99 -34 -1 65 -35 80 -71 -17 0
-198 -60 0
-198 69 0
-198 -37 0
-198 -21 0
-198 25 0
-198 51 0
-198 49 0
-198 -99 0
-198 -95 0
-198 54 0
198 60 -69 37 21 -25 -51 -49 99 95 -54 0
-199 -80 0
-199 -2 0
-199 63 0
-199 92 0
-199 1 0
-199 51 0
-199 53 0
-199 10 0
-199 -6 0
-199 -46 0
199 80 2 -63 -92 -1 -51 -53 -10 6 46 0
-200 3 0
-200 22 0
-200 23 0
-200 20 0
-200 42 0
-200 -61 0
-200 -72 0
-200 -36 0
-200 41 0
-200 27 0
200 -3 -22 -23 -20 -42 61 72 36 -41 -27 0
191 192 193 194 195 196 197 198 199 200 0
